
******************************************************************************
This program contains Ipopt, a library for large-scale nonlinear optimization.
 Ipopt is released as open source code under the Eclipse Public License (EPL).
         For more information visit https://github.com/coin-or/Ipopt
******************************************************************************

This is Ipopt version 3.14.14, running with linear solver MUMPS 5.6.2.

Number of nonzeros in equality constraint Jacobian...:   599894
Number of nonzeros in inequality constraint Jacobian.:        0
Number of nonzeros in Lagrangian Hessian.............:   159980

Total number of variables............................:   175978
                     variables with only lower bounds:        0
                variables with lower and upper bounds:        0
                     variables with only upper bounds:        0
Total number of equality constraints.................:   159978
Total number of inequality constraints...............:        0
        inequality constraints with only lower bounds:        0
   inequality constraints with lower and upper bounds:        0
        inequality constraints with only upper bounds:        0

iter    objective    inf_pr   inf_du lg(mu)  ||d||  lg(rg) alpha_du alpha_pr  ls
   0  2.3000000e+02 9.80e+00 3.00e-02  -1.0 0.00e+00    -  0.00e+00 0.00e+00   0
   1  7.1866817e+02 2.79e-15 1.70e+02  -1.0 1.02e+01    -  1.00e+00 1.00e+00h  1
   2  7.1862632e+02 3.47e-10 2.76e-02  -1.0 2.76e-04   2.0 1.00e+00 1.00e+00f  1
   3  5.6870125e+02 3.76e-02 5.57e-03  -3.8 2.00e+00    -  1.00e+00 1.00e+00f  1
   4  5.6875728e+02 5.15e-04 1.80e-05  -3.8 1.96e-01    -  1.00e+00 1.00e+00h  1
   5  5.6875732e+02 1.90e-09 7.16e-11  -5.7 4.95e-04    -  1.00e+00 1.00e+00h  1

Number of Iterations....: 5

                                   (scaled)                 (unscaled)
Objective...............:   5.6875731663491888e+02    5.6875731663491888e+02
Dual infeasibility......:   7.1628516786027070e-11    7.1628516786027070e-11
Constraint violation....:   1.8989507050148902e-09    1.8989507050148902e-09
Variable bound violation:   0.0000000000000000e+00    0.0000000000000000e+00
Complementarity.........:   0.0000000000000000e+00    0.0000000000000000e+00
Overall NLP error.......:   1.8989507050148902e-09    1.8989507050148902e-09


Number of objective function evaluations             = 6
Number of objective gradient evaluations             = 6
Number of equality constraint evaluations            = 6
Number of inequality constraint evaluations          = 0
Number of equality constraint Jacobian evaluations   = 6
Number of inequality constraint Jacobian evaluations = 0
Number of Lagrangian Hessian evaluations             = 5
Total seconds in IPOPT (w/o function evaluations)    =      5.229
Total seconds in NLP function evaluations            =      1.353


Timing Statistics:

OverallAlgorithm....................:     18.287 (sys:     15.193 wall:      6.582)
 PrintProblemStatistics.............:      0.019 (sys:      0.013 wall:      0.002)
 InitializeIterates.................:      0.840 (sys:      0.089 wall:      0.929)
 UpdateHessian......................:      4.996 (sys:      4.917 wall:      0.857)
 OutputIteration....................:      0.002 (sys:      0.001 wall:      0.001)
 UpdateBarrierParameter.............:      0.000 (sys:      0.000 wall:      0.000)
 ComputeSearchDirection.............:      8.534 (sys:      6.021 wall:      4.273)
 ComputeAcceptableTrialPoint........:      1.888 (sys:      2.057 wall:      0.253)
 AcceptTrialPoint...................:      0.002 (sys:      0.002 wall:      0.000)
 CheckConvergence...................:      2.005 (sys:      2.092 wall:      0.267)
PDSystemSolverTotal.................:      8.532 (sys:      6.019 wall:      4.271)
 PDSystemSolverSolveOnce............:      7.962 (sys:      5.557 wall:      4.194)
 ComputeResiduals...................:      0.444 (sys:      0.361 wall:      0.062)
 StdAugSystemSolverMultiSolve.......:      8.594 (sys:      5.606 wall:      4.903)
 LinearSystemScaling................:      0.000 (sys:      0.000 wall:      0.000)
 LinearSystemSymbolicFactorization..:      0.308 (sys:      0.024 wall:      0.332)
 LinearSystemFactorization..........:      0.000 (sys:      0.000 wall:      0.000)
 LinearSystemBackSolve..............:      5.405 (sys:      5.054 wall:      1.197)
 LinearSystemStructureConverter.....:      0.000 (sys:      0.000 wall:      0.000)
  LinearSystemStructureConverterInit:      0.000 (sys:      0.000 wall:      0.000)
QualityFunctionSearch...............:      0.000 (sys:      0.000 wall:      0.000)
TryCorrector........................:      0.000 (sys:      0.000 wall:      0.000)
Task1...............................:      0.000 (sys:      0.000 wall:      0.000)
Task2...............................:      0.000 (sys:      0.000 wall:      0.000)
Task3...............................:      0.000 (sys:      0.000 wall:      0.000)
Task4...............................:      0.000 (sys:      0.000 wall:      0.000)
Task5...............................:      0.000 (sys:      0.000 wall:      0.000)
Task6...............................:      0.000 (sys:      0.000 wall:      0.000)
Function Evaluations................:      8.530 (sys:      8.714 wall:      1.353)
 Objective function.................:      0.337 (sys:      0.431 wall:      0.049)
 Objective function gradient........:      0.288 (sys:      0.297 wall:      0.042)
 Equality constraints...............:      1.780 (sys:      1.866 wall:      0.233)
 Inequality constraints.............:      0.000 (sys:      0.000 wall:      0.000)
 Equality constraint Jacobian.......:      1.130 (sys:      1.205 wall:      0.172)
 Inequality constraint Jacobian.....:      0.000 (sys:      0.000 wall:      0.000)
 Lagrangian Hessian.................:      4.995 (sys:      4.916 wall:      0.857)

EXIT: Optimal Solution Found.
